RT is False
Default write of storage_offers_DA.csv just to have a file (but constraint should be inactive)
Reading model...
...model read.
creating competitive generators file...
...competitive generators recorded.
Loading data...
.. day-ahead data read.
Compiling instance...
...instance created.
Creating Offer Mitigation (model will solve as dispatch if TRUE)...
...storage offer mitigation file created
Converting model to MPEC...
...converted
NOTE: initial MIP solve with only storage competitive to get feasible solution
Solving...

Welcome to IBM(R) ILOG(R) CPLEX(R) Interactive Optimizer 12.9.0.0
  with Simplex, Mixed Integer & Barrier Optimizers
5725-A06 5725-A29 5724-Y48 5724-Y49 5724-Y54 5724-Y55 5655-Y21
Copyright IBM Corp. 1988, 2019.  All Rights Reserved.

Type 'help' for a list of available commands.
Type 'help' followed by a command name for more
information on commands.

CPLEX> Logfile 'cplex.log' closed.
Logfile 'C:\Users\Luke\Desktop\competitiveMPEC_1.16\logs\tmpx3s9j5y1.cplex.log' open.
CPLEX> New value for parallel optimization mode: -1
CPLEX> New value for mixed integer optimality gap tolerance: 0.01
CPLEX> New value for feasibility tolerance: 0.01
CPLEX> New value for deterministic time limit in ticks: 200000
CPLEX> Problem 'C:\Users\Luke\Desktop\competitiveMPEC_1.16\logs\tmpfc73s4lm.pyomo.lp' read.
Read time = 0.20 sec. (13.86 ticks)
CPLEX> Problem name         : C:\Users\Luke\Desktop\competitiveMPEC_1.16\logs\tmpfc73s4lm.pyomo.lp
Objective sense      : Maximize
Variables            :   53321  [Nneg: 49,  Box: 21806,  Free: 4368,
                                 Binary: 27098]
Objective nonzeros   :    8892
Linear constraints   :  122164  [Less: 40983,  Greater: 58612,  Equal: 22569]
  Nonzeros           :  288417
  RHS nonzeros       :   66894

Variables            : Min LB: -5000.000        Max UB: 5000.000       
Objective nonzeros   : Min   : 0.1000000        Max   : 722.0000       
Linear constraints   :
  Nonzeros           : Min   : 0.1000000        Max   : 2910000.       
  RHS nonzeros       : Min   : 0.1000000        Max   : 3000000.       
CPLEX> CPXPARAM_Parallel                                -1
CPXPARAM_Simplex_Tolerances_Feasibility          0.01
CPXPARAM_DetTimeLimit                            200000
CPXPARAM_MIP_Tolerances_MIPGap                   0.01
Tried aggregator 3 times.
MIP Presolve eliminated 88594 rows and 19388 columns.
MIP Presolve added 3255 rows and 0 columns.
MIP Presolve modified 24207 coefficients.
Aggregator did 12833 substitutions.
Reduced MIP has 23992 rows, 20482 columns, and 67378 nonzeros.
Reduced MIP has 8087 binaries, 0 generals, 0 SOSs, and 0 indicators.
Presolve time = 0.23 sec. (167.20 ticks)
Probing fixed 426 vars, tightened 4721 bounds.
Probing time = 0.06 sec. (19.97 ticks)
Tried aggregator 2 times.
MIP Presolve eliminated 950 rows and 855 columns.
MIP Presolve modified 2916 coefficients.
Aggregator did 34 substitutions.
Reduced MIP has 23008 rows, 19593 columns, and 64516 nonzeros.
Reduced MIP has 7660 binaries, 0 generals, 0 SOSs, and 0 indicators.
Presolve time = 0.11 sec. (90.80 ticks)
Probing fixed 1 vars, tightened 183 bounds.
Probing time = 0.08 sec. (22.97 ticks)
Clique table members: 40187.
MIP emphasis: balance optimality and feasibility.
MIP search method: dynamic search.
Parallel mode: opportunistic, using up to 24 threads.
Root relaxation solution time = 0.31 sec. (260.01 ticks)

        Nodes                                         Cuts/
   Node  Left     Objective  IInf  Best Integer    Best Bound    ItCnt     Gap

      0     0     1538.9246  1609                   1538.9246     5805         
      0     0     1538.9246   315                   Cuts: 646     5998         
      0     0     1538.9246   229                   Cuts: 471     6123         
      0     0     1538.9246   176                   Cuts: 328     6195         
      0     0     1496.2263   176                    Cuts: 81     6213         
      0     0     1496.2263   177                    Cuts: 58     6218         
      0     0     1493.0864   171                    Cuts: 50     6221         
      0     0     1482.4699   171                    Cuts: 54     6227         
      0     0     1482.4699   166                    Cuts: 52     6229         
      0     5     1174.5918   166                     Cuts: 6     6262         
Elapsed time = 5.36 sec. (3860.11 ticks, tree = 0.02 MB, solutions = 0)
    390   202     1002.1576   141                   1421.5496     6962         
    817   667     1331.3710   119                   1421.5496     7657         
   1387  1115     1331.3710   111                   1421.5496    10093         
   1950  1288     1331.3710    77                   1421.5496    11142         
   2428  1628     -656.0638    82                   1421.5496    12261         
   3064  2116      912.0298    75                   1421.5496    16267         
*  3486+ 1961                        -3848.3505     1421.5496           136.94%
   4098  3069    -1569.3351    10    -3848.3505     1421.5496    24549  136.94%
*  4157  2660      integral     0    -1942.0045     1421.5496    21830  173.20%
   4675  1650        cutoff          -1168.0635     1421.5496    27237  221.70%
   5371  2644        cutoff          -1168.0635     1421.5496    39910  221.70%
Elapsed time = 18.14 sec. (10275.62 ticks, tree = 23.91 MB, solutions = 6)
*  6759   129      integral     0     -954.1654     1293.7254    40933  235.59%
   6861   166        cutoff           1135.1408     1293.7254    41062   13.97%
*  7458   109      integral     0     1193.4547     1262.0771    47079    5.75%
*  7759   115      integral     0     1193.4547     1262.0771    47106    5.75%
   7819   109        cutoff           1193.4547     1262.0771    47086    5.75%
   8343   130     1193.4567    34     1193.4547     1229.2126    46890    3.00%

GUB cover cuts applied:  6
Clique cuts applied:  31
Cover cuts applied:  35
Implied bound cuts applied:  78
Flow cuts applied:  397
Mixed integer rounding cuts applied:  189
Gomory fractional cuts applied:  139

Root node processing (before b&c):
  Real time             =    4.95 sec. (3846.51 ticks)
Parallel b&c, 24 threads:
  Real time             =   20.33 sec. (9621.93 ticks)
  Sync time (average)   =    2.43 sec.
  Wait time (average)   =    0.08 sec.
                          ------------
Total (root+branch&cut) =   25.28 sec. (13468.44 ticks)

Solution pool: 26 solutions saved.

MIP - Integer optimal, tolerance (0.01/1e-06):  Objective =  1.1934547405e+03
Current MIP best bound =  1.1934567389e+03 (gap = 0.00199837, 0.00%)
Solution time =   25.28 sec.  Iterations = 50622  Nodes = 8394 (110)
Deterministic time = 13468.59 ticks  (532.76 ticks/sec)

CPLEX> Incumbent solution written to file 'C:\Users\Luke\Desktop\competitiveMPEC_1.16\logs\tmp285zrwlv.cplex.sol'.
CPLEX> NOTE: no warmstart specified for MIP iteration, default behavior is true
NOTE: resolving with all competitive generators using storage-only solution to warmstart
Solving...

Welcome to IBM(R) ILOG(R) CPLEX(R) Interactive Optimizer 12.9.0.0
  with Simplex, Mixed Integer & Barrier Optimizers
5725-A06 5725-A29 5724-Y48 5724-Y49 5724-Y54 5724-Y55 5655-Y21
Copyright IBM Corp. 1988, 2019.  All Rights Reserved.

Type 'help' for a list of available commands.
Type 'help' followed by a command name for more
information on commands.

CPLEX> Logfile 'cplex.log' closed.
Logfile 'C:\Users\Luke\Desktop\competitiveMPEC_1.16\logs\tmptczgig9_.cplex.log' open.
CPLEX> New value for parallel optimization mode: -1
CPLEX> New value for mixed integer optimality gap tolerance: 0.01
CPLEX> New value for feasibility tolerance: 0.01
CPLEX> New value for deterministic time limit in ticks: 200000
CPLEX> Problem 'C:\Users\Luke\Desktop\competitiveMPEC_1.16\logs\tmprzwtfszs.pyomo.lp' read.
Read time = 0.22 sec. (13.88 ticks)
CPLEX> MIP start file 'C:\Users\Luke\Desktop\competitiveMPEC_1.16\logs\tmpqfwml6vt.cplex.mst' read.
CPLEX> Problem name         : C:\Users\Luke\Desktop\competitiveMPEC_1.16\logs\tmprzwtfszs.pyomo.lp
Objective sense      : Maximize
Variables            :   54041  [Nneg: 49,  Box: 22526,  Free: 4368,
                                 Binary: 27098]
Objective nonzeros   :    9589
Linear constraints   :  122164  [Less: 40983,  Greater: 58612,  Equal: 22569]
  Nonzeros           :  288417
  RHS nonzeros       :   66894

Variables            : Min LB: -5000.000        Max UB: 5000.000       
Objective nonzeros   : Min   : 0.1000000        Max   : 722.0000       
Linear constraints   :
  Nonzeros           : Min   : 0.1000000        Max   : 2910000.       
  RHS nonzeros       : Min   : 0.1000000        Max   : 3000000.       
CPLEX> CPXPARAM_Parallel                                -1
CPXPARAM_Simplex_Tolerances_Feasibility          0.01
CPXPARAM_DetTimeLimit                            200000
CPXPARAM_MIP_Tolerances_MIPGap                   0.01
Warning:  No solution found from 1 MIP starts.
Retaining values of one MIP start for possible repair.
Tried aggregator 3 times.
MIP Presolve eliminated 88594 rows and 20108 columns.
MIP Presolve added 3255 rows and 0 columns.
MIP Presolve modified 24207 coefficients.
Aggregator did 12833 substitutions.
Reduced MIP has 23992 rows, 20482 columns, and 67378 nonzeros.
Reduced MIP has 8087 binaries, 0 generals, 0 SOSs, and 0 indicators.
Presolve time = 0.25 sec. (167.56 ticks)
Probing fixed 426 vars, tightened 4721 bounds.
Probing time = 0.06 sec. (19.97 ticks)
Tried aggregator 2 times.
MIP Presolve eliminated 950 rows and 855 columns.
MIP Presolve modified 2916 coefficients.
Aggregator did 34 substitutions.
Reduced MIP has 23008 rows, 19593 columns, and 64516 nonzeros.
Reduced MIP has 7660 binaries, 0 generals, 0 SOSs, and 0 indicators.
Presolve time = 0.09 sec. (90.81 ticks)
Probing fixed 1 vars, tightened 183 bounds.
Probing time = 0.08 sec. (22.97 ticks)
Clique table members: 40187.
MIP emphasis: balance optimality and feasibility.
MIP search method: dynamic search.
Parallel mode: opportunistic, using up to 24 threads.
Root relaxation solution time = 0.36 sec. (295.57 ticks)

        Nodes                                         Cuts/
   Node  Left     Objective  IInf  Best Integer    Best Bound    ItCnt     Gap

      0     0   133991.3740  1701                 133991.3740     6398         
      0     0   132722.5853   340                   Cuts: 794     6733         
      0     0   132449.5700   232                   Cuts: 432     6892         
      0     0   132386.3706   190                   Cuts: 162     6945         
      0     0   132386.3706   188                    Cuts: 24     6949         
      0     0   132386.3706   187                    Cuts: 21     6950         
Repair heuristic found nothing.
      0     2   132386.3706   187                    Cuts: 19     6950         
Elapsed time = 5.41 sec. (3373.81 ticks, tree = 0.02 MB, solutions = 0)
    329    56   119375.8627   129                 128070.3715     7767         
    686   596   110945.6263   110                 128070.3715    12126         
   1072   628   116457.4647   101                 128070.3715    12248         
   1593  1009   118305.4291   122                 128070.3715    18076         
   2336  1239   113704.0692    52                 128070.3715    24574         
   3100  1727   106470.5958    90                 128070.3715    27927         
*  3241+ 2877                        98108.2888   128070.3715            30.54%
   3713  2864   103723.4613    49    98108.2888   128070.3715    31687   30.54%
   4076  3047   107449.4250    41    98108.2888   128070.3715    33758   30.54%
   5191  4371    infeasible          98108.2888   123694.7314    55061   26.08%
Elapsed time = 18.78 sec. (9761.95 ticks, tree = 40.22 MB, solutions = 3)
   6484   263   115721.4253   110    98108.2888   122752.2797    58521   25.12%
   7461  1763    98280.3583    90    98108.2888   122679.8353    70707   25.05%
   9804  3379   115903.2151   128    98108.2888   122679.8353    85931   25.05%
  12487  5148    98624.2478    59    98108.2888   121336.8608    98314   23.68%
  14565  4292   109301.6785   153   106353.7179   120374.4116   112631   13.18%
  16715  5835   107369.2479   131   106353.7179   118991.2086   125701   11.88%
  19260  6923   112246.2670    99   106353.7179   118812.1125   133977   11.71%
  21513  9616   108579.0289    66   106353.7179   118311.5010   161867   11.24%
  23799 10113   106487.4792   132   106353.7179   117881.0641   167609   10.84%
  26102 11743   115171.2380   124   106353.7179   117527.2958   183393   10.51%
Elapsed time = 45.84 sec. (19300.61 ticks, tree = 96.65 MB, solutions = 4)
  28199 13350        cutoff         106353.7179   117182.7205   214983   10.18%
  30353 13642   111762.5445   151   106353.7179   116760.9009   220934    9.79%
  32457 14349   108338.8248   134   106353.7179   116552.8665   254513    9.59%
  33344 14783   105210.6943    86   106353.7179   116035.3456   269553    9.10%
  33811 14951   112542.9781   161   106353.7179   115974.1830   276872    9.05%
  35355 15177        cutoff         106353.7179   115974.1830   284476    9.05%
  37587 15594   113704.2198   169   106353.7179   115955.0890   296186    9.03%
  40210 16865   106362.7428    94   106353.7179   115345.0048   326386    8.45%
  42661 17584        cutoff         106353.7179   115233.4377   339010    8.35%
  44935 18136   107189.0571   120   106353.7179   114873.5178   352899    8.01%
Elapsed time = 72.66 sec. (28969.18 ticks, tree = 162.04 MB, solutions = 4)
  47149 18905   111944.3687   174   106353.7179   114703.5741   371959    7.85%
  49487 19399   107522.3789    98   106353.7179   114403.6786   386499    7.57%
  52206 20220   109120.8060    60   106603.7078   114301.7593   412122    7.22%
  54111  5480   111375.3711   129   110876.8363   114093.5182   447351    2.90%
* 55352  5597      integral     0   111343.6434   114011.8447   455381    2.40%
* 55745  5570      integral     0   112555.1504   114011.8447   455185    1.29%
  56287  6028   112166.5338   128   112555.1504   114011.8447   461860    1.29%
* 56294  5994      integral     0   112697.4807   114011.8447   462211    1.17%
  56298  5368   113321.8619   104   112697.4807   114011.8447   432118    1.17%
  56301  5321   113791.6598   126   112697.4807   114011.8447   437847    1.17%
Elapsed time = 93.50 sec. (38948.26 ticks, tree = 39.36 MB, solutions = 16)

GUB cover cuts applied:  2
Clique cuts applied:  3
Cover cuts applied:  14
Implied bound cuts applied:  24
Flow cuts applied:  320
Mixed integer rounding cuts applied:  48
Gomory fractional cuts applied:  67

Root node processing (before b&c):
  Real time             =    4.88 sec. (3340.42 ticks)
Parallel b&c, 24 threads:
  Real time             =   89.00 sec. (35618.78 ticks)
  Sync time (average)   =    7.79 sec.
  Wait time (average)   =    0.08 sec.
                          ------------
Total (root+branch&cut) =   93.88 sec. (38959.20 ticks)

Solution pool: 16 solutions saved.

MIP - Integer optimal, tolerance (0.01/1e-06):  Objective =  1.1269748066e+05
Current MIP best bound =  1.1369549127e+05 (gap = 998.011, 0.89%)
Solution time =   93.88 sec.  Iterations = 468410  Nodes = 56302 (1311)
Deterministic time = 38959.35 ticks  (415.01 ticks/sec)

CPLEX> Incumbent solution written to file 'C:\Users\Luke\Desktop\competitiveMPEC_1.16\logs\tmp38kjzamc.cplex.sol'.
CPLEX> Exporting results... 
